15 2 
3157	3157	
75	860	1302	
766	773	1390	
727	929	1267	
467	90	106	
424	959	1624	
306	69	113	
572	188	309	
837	567	945	
301	77	107	
97	518	686	
719	306	361	
198	70	114	
849	351	608	
990	305	386	
907	252	262	
